26449
1 1 1 1 1 1 0 1 1 1 1 1 1 0 1 1 1 1 0 1 1 0 1 1 1 1 0 1 1 1
19 20 1 15 9 3 8 3 24 5 9 4 10 12 9 2 14 16 16 5 16 16 4 19 17 9 7 22 20 16 4 5 7 3 2 16 7 24 24 10 1 12 12 1 3 22 12 5 22 19 17 14 24 4 17 4 5 5 14 15 17 11 22 25 15 24 5 14 9 10 19 3 2 8 0 15 22 11 3 14 5 12 11 23 20 5 15 2 24 15 9 29 0 8 29 17 20 29 11 3 29 9 19 11 27 7 1 23 11 9 25 16 29 1 7 17 20 19 11 2 0 10 10 22 28 15 16 20 8 2 23 12 12 9 16 4 5 23 14 1 2 17 27 11 11 19 11 8 11 9 8 11 5 22 4 25 0 24 12 17 23 8 19 17 11 0 9 5 29 23 2 14 24 20 12 10 2 14 27 4 3 4 28 22 28 15 27 1 28 29 16 8 23 20 8 10 4 1 27 8